Translating instance to solver...

Set parameter TimeLimit to value 28800
Gurobi Optimizer version 11.0.2 build v11.0.2rc0 (linux64 - "Ubuntu 22.04.4 LTS")

CPU model: Intel(R) Xeon(R) Gold 5120 CPU @ 2.20GHz, instruction set [SSE2|AVX|AVX2|AVX512]
Thread count: 28 physical cores, 56 logical processors, using up to 28 threads

Academic license 2463511 - for non-commercial use only - registered to lu___@cefet-rj.br
Optimize a model with 85165 rows, 41523 columns and 194718 nonzeros
Model fingerprint: 0x0f0518fe
Variable types: 1 continuous, 41522 integer (41460 binary)
Coefficient statistics:
  Matrix range     [1e+00, 1e+05]
  Objective range  [3e-01, 8e-01]
  Bounds range     [1e+00, 6e+01]
  RHS range        [1e+00, 6e+01]
Presolve removed 69243 rows and 34979 columns
Presolve time: 1.28s
Presolved: 15922 rows, 6544 columns, 46489 nonzeros
Variable types: 0 continuous, 6544 integer (6483 binary)

Root relaxation: objective 9.176730e-01, 1176 iterations, 0.08 seconds (0.12 work units)

    Nodes    |    Current Node    |     Objective Bounds      |     Work
 Expl Unexpl |  Obj  Depth IntInf | Incumbent    BestBd   Gap | It/Node Time

     0     0    0.91767    0   15          -    0.91767      -     -    1s
H    0     0                       2.5735640    0.91767  64.3%     -    2s
     0     0    0.91767    0   35    2.57356    0.91767  64.3%     -    2s
H    0     0                       1.3676730    0.91767  32.9%     -    3s
     0     0    0.91767    0   36    1.36767    0.91767  32.9%     -    3s
     0     0    0.91767    0   39    1.36767    0.91767  32.9%     -    3s
     0     0    0.91767    0   12    1.36767    0.91767  32.9%     -    3s
     0     0    0.91767    0  107    1.36767    0.91767  32.9%     -    3s
     0     0    0.91767    0   43    1.36767    0.91767  32.9%     -    3s
     0     0    0.91767    0   18    1.36767    0.91767  32.9%     -    3s
     0     0    0.91767    0   24    1.36767    0.91767  32.9%     -    3s
     0     0    0.91767    0   29    1.36767    0.91767  32.9%     -    3s
H    0     0                       1.2235640    0.91767  25.0%     -    3s
     0     0    0.91767    0   39    1.22356    0.91767  25.0%     -    3s
     0     0    0.91767    0   21    1.22356    0.91767  25.0%     -    4s
     0     0    0.91767    0   21    1.22356    0.91767  25.0%     -    4s
     0     2    0.91767    0   21    1.22356    0.91767  25.0%     -    4s
     8     7    0.91767    0  104    1.22356    0.91767  25.0%  40.5    5s

Cutting planes:
  Learned: 22
  Gomory: 1
  Implied bound: 7
  Projected implied bound: 2
  MIR: 2
  Flow cover: 4
  Zero half: 8
  RLT: 16
  Relax-and-lift: 1

Explored 219 nodes (58927 simplex iterations) in 8.94 seconds (5.73 work units)
Thread count was 28 (of 56 available processors)

Solution count 3: 1.22356 1.36767 2.57356 

Optimal solution found (tolerance 1.00e-04)
Best objective 1.223564000000e+00, best bound 1.223564000000e+00, gap 0.0000%

Solver Wallclock Time (for this epsilon): 8.943321943283081 s
Python wallclock Time (for this epsilon): 15.089576721191406 s


Total Elapsed Time (since program call): 366.1739854812622 s

Results:

I = 1.223564 mA
C = 20.0 points
C ~= 8.0 km^2

Minimum Epsilon for this instance = 10
Maximum Epsilon for this instance = 100

Current Epsilon = 20


Preprocessing Time (for this epsilon): 0.010261297225952148 s


Updated solution vectors:
sol_I = [-0.9176730000000001,-1.223564]
sol_C = [15.0,20.0]
sol_eps = [10,20]
sol_gap = [0.0,0.0]
